3243 3149 3073 3039 3012 2947 2918 2906 2957 2966 2826 2851 2785 2793 2774 2777 2739 2684 2649 2549 2536 2472 2404 2364 2309 2250 2225 2185 2153 2113 2103 2077 2043 2009 1977 1942 1908 1894 1867 1855 1842 1810 1790 1768 1753 1739 1727 1722 1712 1700 1683 1666 1646 1628 1610 1601 1596 1587 1582 1573 1562 1549 1539 1530 1521 1511 1498 1490 1485 1475 1468 1461 1460 1455 1454 1450 1443 1441 1439 1434 1429 1427 1425 1423 1416 1412 1404 1400 1397 1397 1396 1395 1392 1391 1388 1386 1383 1372 1371 1370 1367 1362 1359 1341 1334 1334 1330 1329 1326 1326 1322 1312 1312 1311 1305 1305 1301 1298 1295 1288 1288 1286 1282 1281 1280 1279 1278 1278 1276 1275 1268 1268 1266 1263 1262 1260 1258 1258 1254 1252 1252 1252 1251 1251 1251 1251 1251 1251 1251 1251 1249 1249 1249 1247 1247 1247 1245 1245 1241 1240 1240 1235 1233 1233 1233 1231 1231 1229 1226 1226 1226 1226 1226 1222 1220 1220 1220 1220 1220 1220 1220 1220 1220 1220 1220 1220 1220 1220 1220 1220 1220 1220 1219 1219 1219 1219 1219 1219 1219 1219 1219 1219 1218 1218 1211 1211 1211 1211 1211 1211 1211 1211 1211 1211 1211 1211 1211 1211 1211 1211 1211 1211 1211 1211 1211 1211 1211 1211 1211 1211 1211 1211 1211 1211 1211 1211 1211 1211 1211 1211 1211 1211 1211 1211 1211 1211 1211 1211 1211 1211 1208 1208 1208 1208 1208 1208 1208 1205 1205 1205 1205 1205 1203 1203 1203 1203 1201 1201 1200 1198 1198 1196 1196 1196 1194 1194 1194 1194 1194 1194 1194 1194 1194 1188 1188 1187 1185 1185 1185 1185 1185 1185 1185 1185 1185 1185 1185 1185 1185 1185 1185 1185 1185 1185 1185 1184 1184 1184 1184 1184 1184 1184 1184 1184 1184 1184 1184 1184 1184 1184 1184 1184 1184 1183 1183 1183 1183 1183 1183 1183 1176 1176 1176 1172 1172 1171 1171 1171 1171 1171 1171 1171 1171 1171 1171 1171 1171 1171 1171 1171 1171 1171 1171 1171 1171 1171 1171 1171 1171 1171 1171 1171 1171 1171 1171 1171 1171 1171 1171 1171 1171 1171 1171 1171 1171 1171 1171 1171 1171 1171 1171 1171 1171 1171 1171 1171 1171 1171 1171 1171 1171 1171 1171 1171 1171 1171 1171 1171 1171 1171 1171 1171 1171 1171 1171 1171 1171 1171 1171 1171 1171 1171 1171 1171 1171 1171 1171 1171 1171 1171 1171 1171 1171 1171 1171 1171 1171 1171 1171 1171 1171 1171 1171 1171 1171 1171 1171 1171 1171 1171 1171 1171 1171 1171 1171 1171 1171 1171 1171 1171 1171 1171 1171 1171 1171 1171 1171 1171 1171 1171 1171 1171 1171 1171 1171 1171 1171 1171 1171 1171 1171 1171 1171 1171 1171 1171 1171 1171 1171 1171 1171 1171 1171 1171 1171 1171 1171 1171 1171 1171 1171 1171 1171 1171 1171 1171 1171 1171 1171 1171 1171 1171 1171 1171 1171 1171 1171 1171 1171 1171 1171 1171 1171 1171 1171 1171 1171 1171 1171 1171 1171 1171 1171 1171 1171 1171 1171 1171 1171 1171 1171 1171 1171 1171 1171 1171 1171 1171 1171 1171 1171 1171 1171 1171 1171 1171 1171 1171 1171 1171 1171 1171 1171 1171 1171 1171 1171 1171 1171 1171 1171 1171 1171 1171 1171 1171 1171 1171 1171 1171 1171 1171 1171 1171 1171 1171 1171 1171 1171 1171 1171 1171 1171 1171 1171 1171 1171 1171 1171 1171 1171 1171 1171 1171 1171 1171 1171 1171 1171 1171 1171 1171 1171 1171 1171 1171 1171 1171 1171 1171 1171 1171 1171 1171 1171 1171 1171 1171 1171 1171 1171 1171 1171 1171 1171 1171 1171 1171 1171 1171 1171 1171 1171 1171 1171 1171 1171 1171 1171 1171 1171 1171 1171 1171 1171 1171 1171 1171 1171 1171 1171 1171 1171 1171 1171 1171 1171 1171 1171 1171 1171 1171 1171 1171 1171 1171 1171 1171 1171 1171 1171 1171 1171 1171 1171 1171 1171 1171 1171 1171 1171 1171 1171 1171 1171 1171 1171 1171 1171 1171 1171 1171 1171 1171 1171 1171 1171 1171 1171 1171 1171 1171 1171 1171 1171 1171 1171 1171 1171 1171 1171 1171 1171 1171 1171 1171 1171 1171 1171 1171 1171 1171 1171 1171 1171 1171 1171 1171 1171 1171 1171 1171 1171 1171 1171 1171 1171 1171 1171 1171 1171 1171 1171 1171 1171 1171 1171 1171 1171 1171 1171 1171 1171 1171 1171 1171 1171 1171 1171 1171 1171 1171 1171 1171 1171 1171 1171 1171 1171 1171 1171 1171 1171 1171 1171 1171 1171 1171 1171 1171 1171 1171 1171 1171 1171 1171 1171 1171 1171 1171 1171 1171 1171 1171 1171 1171 1171 1171 1171 1171 1171 1171 1171 1171 1171 1171 1171 1171 1171 1171 1171 1171 1171 1171 1171 1171 1171 1171 1171 1171 1171 1171 1171 1171 1171 1171 1171 1171 1171 1171 1171 1171 1171 1171 1171 1171 
342 245 180 139 129 92 51 41 40 30 23 9 9 4 2 1 0 0 0 0 0 0 0 0 0 0 0 0 0 0 0 0 0 0 0 0 0 0 0 0 0 0 0 0 0 0 0 0 0 0 0 0 0 0 0 0 0 0 0 0 0 0 0 0 0 0 0 0 0 0 0 0 0 0 0 0 0 0 0 0 0 0 0 0 0 0 0 0 0 0 0 0 0 0 0 0 0 0 0 0 0 0 0 0 0 0 0 0 0 0 0 0 0 0 0 0 0 0 0 0 0 0 0 0 0 0 0 0 0 0 0 0 0 0 0 0 0 0 0 0 0 0 0 0 0 0 0 0 0 0 0 0 0 0 0 0 0 0 0 0 0 0 0 0 0 0 0 0 0 0 0 0 0 0 0 0 0 0 0 0 0 0 0 0 0 0 0 0 0 0 0 0 0 0 0 0 0 0 0 0 0 0 0 0 0 0 0 0 0 0 0 0 0 0 0 0 0 0 0 0 0 0 0 0 0 0 0 0 0 0 0 0 0 0 0 0 0 0 0 0 0 0 0 0 0 0 0 0 0 0 0 0 0 0 0 0 0 0 0 0 0 0 0 0 0 0 0 0 0 0 0 0 0 0 0 0 0 0 0 0 0 0 0 0 0 0 0 0 0 0 0 0 0 0 0 0 0 0 0 0 0 0 0 0 0 0 0 0 0 0 0 0 0 0 0 0 0 0 0 0 0 0 0 0 0 0 0 0 0 0 0 0 0 0 0 0 0 0 0 0 0 0 0 0 0 0 0 0 0 0 0 0 0 0 0 0 0 0 0 0 0 0 0 0 0 0 0 0 0 0 0 0 0 0 0 0 0 0 0 0 0 0 0 0 0 0 0 0 0 0 0 0 0 0 0 0 0 0 0 0 0 0 0 0 0 0 0 0 0 0 0 0 0 0 0 0 0 0 0 0 0 0 0 0 0 0 0 0 0 0 0 0 0 0 0 0 0 0 0 0 0 0 0 0 0 0 0 0 0 0 0 0 0 0 0 0 0 0 0 0 0 0 0 0 0 0 0 0 0 0 0 0 0 0 0 0 0 0 0 0 0 0 0 0 0 0 0 0 0 0 0 0 0 0 0 0 0 0 0 0 0 0 0 0 0 0 0 0 0 0 0 0 0 0 0 0 0 0 0 0 0 0 0 0 0 0 0 0 0 0 0 0 0 0 0 0 0 0 0 0 0 0 0 0 0 0 0 0 0 0 0 0 0 0 0 0 0 0 0 0 0 0 0 0 0 0 0 0 0 0 0 0 0 0 0 0 0 0 0 0 0 0 0 0 0 0 0 0 0 0 0 0 0 0 0 0 0 0 0 0 0 0 0 0 0 0 0 0 0 0 0 0 0 0 0 0 0 0 0 0 0 0 0 0 0 0 0 0 0 0 0 0 0 0 0 0 0 0 0 0 0 0 0 0 0 0 0 0 0 0 0 0 0 0 0 0 0 0 0 0 0 0 0 0 0 0 0 0 0 0 0 0 0 0 0 0 0 0 0 0 0 0 0 0 0 0 0 0 0 0 0 0 0 0 0 0 0 0 0 0 0 0 0 0 0 0 0 0 0 0 0 0 0 0 0 0 0 0 0 0 0 0 0 0 0 0 0 0 0 0 0 0 0 0 0 0 0 0 0 0 0 0 0 0 0 0 0 0 0 0 0 0 0 0 0 0 0 0 0 0 0 0 0 0 0 0 0 0 0 0 0 0 0 0 0 0 0 0 0 0 0 0 0 0 0 0 0 0 0 0 0 0 0 0 0 0 0 0 0 0 0 0 0 0 0 0 0 0 0 0 0 0 0 0 0 0 0 0 0 0 0 0 0 0 0 0 0 0 0 0 0 0 0 0 0 0 